experiment/data/hgs-res/Vrp-Set-A-n63/Vrp-Set-A-n63-hgs/1.hgs1.vrp
NAME : 1
COMMENT : CVRP Instance
TYPE : CVRP
DIMENSION : 63
EDGE_WEIGHT_TYPE : EUC_2D
CAPACITY : 100
NODE_COORD_SECTION
1	91.0	93.0
2	7.0	5.0
3	27.0	91.0
4	21.0	47.0
5	33.0	11.0
6	19.0	99.0
7	59.0	25.0
8	69.0	79.0
9	11.0	73.0
10	21.0	35.0
11	59.0	45.0
12	99.0	81.0
13	71.0	47.0
14	53.0	83.0
15	87.0	1.0
16	79.0	67.0
17	59.0	65.0
18	67.0	21.0
19	27.0	1.0
20	81.0	93.0
21	59.0	89.0
22	95.0	23.0
23	73.0	25.0
24	41.0	25.0
25	3.0	65.0
26	59.0	83.0
27	83.0	97.0
28	5.0	83.0
29	71.0	35.0
30	37.0	97.0
31	29.0	93.0
32	19.0	21.0
33	83.0	13.0
34	97.0	67.0
35	31.0	83.0
36	65.0	17.0
37	19.0	63.0
38	59.0	23.0
39	17.0	25.0
40	45.0	27.0
41	89.0	7.0
42	19.0	41.0
43	23.0	39.0
44	23.0	21.0
45	83.0	61.0
46	11.0	93.0
47	17.0	11.0
48	35.0	11.0
49	21.0	59.0
50	21.0	69.0
51	71.0	13.0
52	63.0	13.0
53	49.0	21.0
54	83.0	31.0
55	41.0	97.0
56	85.0	15.0
57	77.0	73.0
58	57.0	1.0
59	83.0	11.0
60	1.0	75.0
61	45.0	71.0
62	41.0	55.0
63	45.0	13.0
DEMAND_SECTION
1	0
2	4
3	18
4	22
5	14
6	5
7	9
8	7
9	20
10	19
11	7
12	18
13	20
14	2
15	11
16	10
17	5
18	21
19	20
20	1
21	15
22	15
23	14
24	19
25	22
26	21
27	22
28	6
29	24
30	14
31	14
32	2
33	15
34	21
35	15
36	6
37	23
38	14
39	26
40	15
41	15
42	23
43	7
44	22
45	26
46	20
47	3
48	2
49	15
50	2
51	21
52	12
53	4
54	10
55	23
56	4
57	24
58	17
59	2
60	20
61	18
62	19
63	8
DEPOT_SECTION
1
-1
EOF
