experiment/data/hgs-res/Vrp-Set-A-n63/Vrp-Set-A-n63-hgs/1.hgs1.tour
Route #1: 19 54 29 30 2 34 20
Route #2: 5 45 27 59 24 8 13
Route #3: 7 61 60 25 26
Route #4: 16 42 41 3 48 36 49
Route #5: 52 18 1 46 43 31 38 9
Route #6: 10 39 23 4 47 62 57 51 35
Route #7: 12 28 6 37 17 53
Route #8: 11 33 44 15 56
Route #9: 22 50 14 40 58 32 55 21
Cost 1622.14
